
  21    0


   0  11 2 3 4 5 7 8 9 10 11 19 20 
   8   3 14 13 6 
   6   3 14 13 12 
   1   2 18 17 
   9   2 13 12 
   8   1 12 
   2   1 16 
   5   1 15 
   5   1 14 
   9   1 13 
   1   1 12 
   7   1 21
   5   1 21
   5   1 21
   8   1 21
   1   1 21
   8   1 21
   1   1 21
   1   1 21
   7   1 21
   0   0 
